NAME : 10_3_3_2_(47).dat
COMMENT : Henke, Speranza, Wäscher, 2015
TYPE : MCVRP
DIMENSION : 11
EDGE_WEIGHT_TYPE : DISTANCE_MATRIX
CAPACITY : 1000
VEHICLES : 3
PRODUCT TYPES : 3
COMPARTMENTS : 3
NODE_COORD_SECTION
1 50 50
2 68.9 96.12
3 25.87 89.38
4 9.34 26.36
5 29.86 63.7
6 45.77 5.63
7 35.21 6.99
8 9.89 72.36
9 46.76 3.59
10 54.31 37.3
11 84.49 62.55
DEMAND_SECTION
1 0 0 0
2 136 75 0
3 138 120 0
4 78 0 57
5 127 80 0
6 122 46 0
7 0 1 33
8 75 0 64
9 125 0 119
10 31 68 0
11 0 111 60
DEPOT_SECTION
1
EOF